jobs 122 
horizon 669 
PRECEDENCE:
1    
2    1
3    1
4    1
5    2
6    2
7    6
8    2
9    5
10    5
11    4
12    8
13    5
14    12
15    12
16    12
17    11
18    3
19    17
20    4
21    7
22    3
23    3 16
24    17
25    4
26    9
27    6
28    23 24
29    10
30    7
31    29
32    29
33    31
34    17
35    14
36    15
37    18
38    9
39    31
40    29
41    36
42    23
43    25 37
44    13
45    13
46    7
47    13
48    25
49    46
50    11
51    43
52    14
53    42
54    19 33
55    9
56    6
57    41 50
58    36
59    45
60    47 58
61    55
62    53
63    25 56
64    21 47
65    47
66    10
67    35 40 61
68    59
69    45 67
70    34 52 67
71    49
72    54 66
73    71
74    26
75    51 73
76    22
77    30 64
78    65
79    11
80    72 75
81    57
82    69 79
83    57
84    33
85    60
86    46
87    32 84
88    63
89    81 86
90    28 74
91    48 62 76
92    27 87
93    36 90
94    61
95    32 94
96    18
97    38
98    88 93
99    38
100    43 85 90
101    39 91
102    26
103    92
104    64 70 87
105    95 97 104
106    20 78 101
107    44 80 100
108    89
109    82
110    66 77 103
111    96 99 102
112    42 92
113    57 112
114    31 63 79
115    105 108 110
116    8 68 110
117    83 107 109
118    50 106 111
119    66 113 114
120    98 115 118
121    105 116 117
122    119 120 121
RESOURCEAVAILABILITY 19
REQUESTS/DURATIONS: 
 1 0 0 
 2 1 0 
 3 10 1 
 4 5 5 
 5 9 1 
 6 4 0 
 7 2 2 
 8 8 0 
 9 3 0 
 10 2 9 
 11 1 3 
 12 5 4 
 13 1 0 
 14 3 0 
 15 3 0 
 16 8 0 
 17 9 9 
 18 2 0 
 19 7 0 
 20 8 7 
 21 6 9 
 22 5 0 
 23 1 8 
 24 4 0 
 25 3 2 
 26 6 4 
 27 2 0 
 28 6 0 
 29 2 5 
 30 7 0 
 31 10 4 
 32 2 0 
 33 10 1 
 34 10 0 
 35 7 0 
 36 7 0 
 37 10 4 
 38 8 0 
 39 5 0 
 40 5 0 
 41 5 0 
 42 5 9 
 43 9 8 
 44 7 6 
 45 5 2 
 46 2 0 
 47 3 6 
 48 5 0 
 49 7 0 
 50 3 0 
 51 9 0 
 52 6 0 
 53 7 0 
 54 7 0 
 55 7 0 
 56 10 4 
 57 6 0 
 58 6 0 
 59 6 8 
 60 1 0 
 61 5 1 
 62 2 0 
 63 10 3 
 64 10 0 
 65 5 6 
 66 7 0 
 67 7 8 
 68 5 2 
 69 5 10 
 70 5 0 
 71 9 6 
 72 3 0 
 73 3 6 
 74 5 6 
 75 8 9 
 76 9 0 
 77 7 9 
 78 9 6 
 79 3 4 
 80 4 0 
 81 3 6 
 82 9 0 
 83 9 0 
 84 10 0 
 85 5 0 
 86 2 0 
 87 6 0 
 88 1 2 
 89 2 6 
 90 8 0 
 91 4 7 
 92 6 0 
 93 1 0 
 94 5 4 
 95 5 0 
 96 10 0 
 97 9 0 
 98 2 0 
 99 4 6 
100 7 3 
101 9 0 
102 3 5 
103 8 0 
104 7 6 
105 2 7 
106 8 7 
107 10 9 
108 7 0 
109 7 9 
110 4 0 
111 6 1 
112 3 3 
113 1 7 
114 5 0 
115 3 0 
116 6 8 
117 10 0 
118 7 2 
119 4 0 
120 5 1 
121 2 0 
122 0 0 
